SCIP version 0.82 [precision: 8 byte] [memory: block] [mode: optimized] [LP solver: SOPLEX 1.3.0]
Copyright (c) 2002-2006 Konrad-Zuse-Zentrum fuer Informationstechnik Berlin (ZIB)

reading parameter file <scip.set>

read problem </ufs/psxjm3/instances/udine2.ctt.c.zpl>
============

****************************************************
* Zuse Institute Mathematical Programming Language *
* Release 2.04  Copyright (C)2005 by Thorsten Koch *
****************************************************

original problem has 12480 variables (12480 bin, 0 int, 0 impl, 0 cont) and 3080 constraints

solve problem
=============

LP Solver <SOPLEX 1.3.0>: dual feasibility tolerance cannot be set -- tolerance of SCIP and LP solver may differ
LP Solver <SOPLEX 1.3.0>: barrier convergence tolerance cannot be set -- tolerance of SCIP and LP solver may differ
LP Solver <SOPLEX 1.3.0>: fastmip setting not available -- SCIP parameter has no effect
LP Solver <SOPLEX 1.3.0>: scaling not available -- SCIP parameter has no effect
LP Solver <SOPLEX 1.3.0>: presolving not available -- SCIP parameter has no effect
transformed problem has 12480 variables (12480 bin, 0 int, 0 impl, 0 cont) and 3080 constraints
   3080 constraints of type <linear>

presolving:
(round 1) 1728 del vars, 26 del conss, 1728 chg bounds, 0 chg sides, 0 chg coeffs, 0 upgd conss, 0 impls, 1677 clqs
(round 2) 1728 del vars, 333 del conss, 1728 chg bounds, 0 chg sides, 0 chg coeffs, 0 upgd conss, 0 impls, 1677 clqs
(round 3) 1728 del vars, 2155 del conss, 1728 chg bounds, 1871 chg sides, 0 chg coeffs, 0 upgd conss, 0 impls, 1677 clqs
(round 4) 1728 del vars, 2155 del conss, 1728 chg bounds, 1871 chg sides, 0 chg coeffs, 840 upgd conss, 0 impls, 1677 clqs
   (1.9s) probing: 100/10752 (0.9%) - 0 fixings, 0 aggregations, 0 implications, 0 bound changes
presolving (5 rounds):
 1728 deleted vars, 2155 deleted constraints, 1728 tightened bounds, 0 added holes, 1871 changed sides, 0 changed coefficients
 0 implications, 1677 cliques
presolved problem has 10752 variables (10752 bin, 0 int, 0 impl, 0 cont) and 925 constraints
    840 constraints of type <setppc>
     85 constraints of type <linear>
objective value is always integral
Presolving Time: 1.78

 time | node  | left  |LP iter| mem |mdpt |frac |vars |cons |ccons|cols |rows |cuts |confs|strbr|  dualbound   | primalbound  |  gap   
  2.6s|     1 |     0 |  1372 |  32M|   0 | 138 |  10k| 925 | 925 |  10k| 925 |   0 |   0 |   0 | 0.000000e+00 |      --      |    Inf 
  2.9s|     1 |     0 |  1415 |  32M|   0 | 169 |  10k| 925 | 925 |  10k| 929 |   4 |   0 |   0 | 0.000000e+00 |      --      |    Inf 
  3.2s|     1 |     0 |  1470 |  32M|   0 | 191 |  10k| 925 | 925 |  10k| 933 |   8 |   0 |   0 | 0.000000e+00 |      --      |    Inf 
  3.4s|     1 |     0 |  1482 |  32M|   0 | 199 |  10k| 925 | 925 |  10k| 936 |  11 |   0 |   0 | 0.000000e+00 |      --      |    Inf 
  3.6s|     1 |     0 |  1498 |  32M|   0 | 188 |  10k| 925 | 925 |  10k| 938 |  13 |   0 |   0 | 0.000000e+00 |      --      |    Inf 
  3.9s|     1 |     0 |  1501 |  32M|   0 | 188 |  10k| 925 | 925 |  10k| 939 |  14 |   0 |   0 | 0.000000e+00 |      --      |    Inf 
F10.5s|     1 |     2 |  2252 |  32M|   0 |   0 |  10k| 925 | 925 |  10k| 939 |  14 |   0 |  33 | 0.000000e+00 | 0.000000e+00 |   0.00%

SCIP Status        : problem is solved [optimal solution found]
Solving Time (sec) : 10.50
Solving Nodes      : 1
Primal Bound       : +0.00000000000000e+00 (1 solutions)
Dual Bound         : +0.00000000000000e+00
Gap                : 0.00 %

primal solution:
================

objective value:                                    0
Taught#1#1#24                                       1 	(obj:0)
Taught#1#2#19                                       1 	(obj:0)
Taught#1#3#33                                       1 	(obj:0)
Taught#1#4#2                                        1 	(obj:0)
Taught#1#5#3                                        1 	(obj:0)
Taught#1#6#4                                        1 	(obj:0)
Taught#1#7#46                                       1 	(obj:0)
Taught#1#8#28                                       1 	(obj:0)
Taught#1#9#7                                        1 	(obj:0)
Taught#1#10#9                                       1 	(obj:0)
Taught#1#11#13                                      1 	(obj:0)
Taught#1#12#21                                      1 	(obj:0)
Taught#2#1#7                                        1 	(obj:0)
Taught#2#2#21                                       1 	(obj:0)
Taught#2#3#4                                        1 	(obj:0)
Taught#2#4#31                                       1 	(obj:0)
Taught#2#5#30                                       1 	(obj:0)
Taught#2#6#36                                       1 	(obj:0)
Taught#2#7#25                                       1 	(obj:0)
Taught#2#8#9                                        1 	(obj:0)
Taught#2#9#32                                       1 	(obj:0)
Taught#2#10#2                                       1 	(obj:0)
Taught#2#11#50                                      1 	(obj:0)
Taught#2#12#23                                      1 	(obj:0)
Taught#3#1#11                                       1 	(obj:0)
Taught#3#2#50                                       1 	(obj:0)
Taught#3#3#8                                        1 	(obj:0)
Taught#3#4#17                                       1 	(obj:0)
Taught#3#5#23                                       1 	(obj:0)
Taught#3#6#10                                       1 	(obj:0)
Taught#3#7#14                                       1 	(obj:0)
Taught#3#8#35                                       1 	(obj:0)
Taught#3#9#2                                        1 	(obj:0)
Taught#3#12#39                                      1 	(obj:0)
Taught#4#1#23                                       1 	(obj:0)
Taught#4#2#26                                       1 	(obj:0)
Taught#4#3#14                                       1 	(obj:0)
Taught#4#4#41                                       1 	(obj:0)
Taught#4#5#50                                       1 	(obj:0)
Taught#4#6#4                                        1 	(obj:0)
Taught#4#7#10                                       1 	(obj:0)
Taught#4#8#1                                        1 	(obj:0)
Taught#4#9#52                                       1 	(obj:0)
Taught#4#10#32                                      1 	(obj:0)
Taught#4#11#19                                      1 	(obj:0)
Taught#4#12#39                                      1 	(obj:0)
Taught#5#1#12                                       1 	(obj:0)
Taught#5#2#33                                       1 	(obj:0)
Taught#5#3#10                                       1 	(obj:0)
Taught#5#4#9                                        1 	(obj:0)
Taught#5#5#34                                       1 	(obj:0)
Taught#5#6#17                                       1 	(obj:0)
Taught#5#7#42                                       1 	(obj:0)
Taught#5#8#38                                       1 	(obj:0)
Taught#5#9#25                                       1 	(obj:0)
Taught#5#10#37                                      1 	(obj:0)
Taught#5#11#27                                      1 	(obj:0)
Taught#5#12#29                                      1 	(obj:0)
Taught#6#1#23                                       1 	(obj:0)
Taught#6#2#37                                       1 	(obj:0)
Taught#6#3#27                                       1 	(obj:0)
Taught#6#6#35                                       1 	(obj:0)
Taught#6#7#7                                        1 	(obj:0)
Taught#6#8#12                                       1 	(obj:0)
Taught#6#10#32                                      1 	(obj:0)
Taught#6#11#46                                      1 	(obj:0)
Taught#6#12#17                                      1 	(obj:0)
Taught#7#1#48                                       1 	(obj:0)
Taught#7#2#5                                        1 	(obj:0)
Taught#7#3#29                                       1 	(obj:0)
Taught#7#4#39                                       1 	(obj:0)
Taught#7#5#8                                        1 	(obj:0)
Taught#7#6#34                                       1 	(obj:0)
Taught#7#7#22                                       1 	(obj:0)
Taught#7#8#11                                       1 	(obj:0)
Taught#7#9#35                                       1 	(obj:0)
Taught#7#10#18                                      1 	(obj:0)
Taught#7#11#47                                      1 	(obj:0)
Taught#7#12#27                                      1 	(obj:0)
Taught#8#1#14                                       1 	(obj:0)
Taught#8#2#21                                       1 	(obj:0)
Taught#8#4#46                                       1 	(obj:0)
Taught#8#5#28                                       1 	(obj:0)
Taught#8#6#8                                        1 	(obj:0)
Taught#8#7#43                                       1 	(obj:0)
Taught#8#8#16                                       1 	(obj:0)
Taught#8#9#38                                       1 	(obj:0)
Taught#8#10#44                                      1 	(obj:0)
Taught#8#11#12                                      1 	(obj:0)
Taught#9#1#21                                       1 	(obj:0)
Taught#9#2#8                                        1 	(obj:0)
Taught#9#3#9                                        1 	(obj:0)
Taught#9#5#18                                       1 	(obj:0)
Taught#9#6#31                                       1 	(obj:0)
Taught#9#7#24                                       1 	(obj:0)
Taught#9#8#11                                       1 	(obj:0)
Taught#9#9#14                                       1 	(obj:0)
Taught#9#10#45                                      1 	(obj:0)
Taught#9#11#3                                       1 	(obj:0)
Taught#9#12#25                                      1 	(obj:0)
Taught#10#1#11                                      1 	(obj:0)
Taught#10#2#33                                      1 	(obj:0)
Taught#10#3#25                                      1 	(obj:0)
Taught#10#4#23                                      1 	(obj:0)
Taught#10#5#7                                       1 	(obj:0)
Taught#10#7#15                                      1 	(obj:0)
Taught#10#8#50                                      1 	(obj:0)
Taught#10#9#39                                      1 	(obj:0)
Taught#10#10#29                                     1 	(obj:0)
Taught#10#11#48                                     1 	(obj:0)
Taught#10#12#17                                     1 	(obj:0)
Taught#11#1#44                                      1 	(obj:0)
Taught#11#2#5                                       1 	(obj:0)
Taught#11#3#29                                      1 	(obj:0)
Taught#11#4#31                                      1 	(obj:0)
Taught#11#5#43                                      1 	(obj:0)
Taught#11#6#13                                      1 	(obj:0)
Taught#11#7#45                                      1 	(obj:0)
Taught#11#8#9                                       1 	(obj:0)
Taught#11#9#27                                      1 	(obj:0)
Taught#11#10#3                                      1 	(obj:0)
Taught#11#11#50                                     1 	(obj:0)
Taught#11#12#38                                     1 	(obj:0)
Taught#12#1#34                                      1 	(obj:0)
Taught#12#2#28                                      1 	(obj:0)
Taught#12#3#18                                      1 	(obj:0)
Taught#12#4#39                                      1 	(obj:0)
Taught#12#5#47                                      1 	(obj:0)
Taught#12#6#40                                      1 	(obj:0)
Taught#12#7#14                                      1 	(obj:0)
Taught#12#8#19                                      1 	(obj:0)
Taught#12#9#31                                      1 	(obj:0)
Taught#12#10#44                                     1 	(obj:0)
Taught#12#11#25                                     1 	(obj:0)
Taught#12#12#1                                      1 	(obj:0)
Taught#13#1#21                                      1 	(obj:0)
Taught#13#2#31                                      1 	(obj:0)
Taught#13#3#13                                      1 	(obj:0)
Taught#13#4#51                                      1 	(obj:0)
Taught#13#6#26                                      1 	(obj:0)
Taught#13#7#34                                      1 	(obj:0)
Taught#13#8#32                                      1 	(obj:0)
Taught#13#9#36                                      1 	(obj:0)
Taught#13#10#38                                     1 	(obj:0)
Taught#13#11#20                                     1 	(obj:0)
Taught#13#12#16                                     1 	(obj:0)
Taught#14#1#47                                      1 	(obj:0)
Taught#14#2#3                                       1 	(obj:0)
Taught#14#3#10                                      1 	(obj:0)
Taught#14#4#2                                       1 	(obj:0)
Taught#14#6#27                                      1 	(obj:0)
Taught#14#8#24                                      1 	(obj:0)
Taught#14#9#17                                      1 	(obj:0)
Taught#14#10#38                                     1 	(obj:0)
Taught#14#11#11                                     1 	(obj:0)
Taught#14#12#34                                     1 	(obj:0)
Taught#15#1#22                                      1 	(obj:0)
Taught#15#2#35                                      1 	(obj:0)
Taught#15#3#41                                      1 	(obj:0)
Taught#15#4#49                                      1 	(obj:0)
Taught#15#5#24                                      1 	(obj:0)
Taught#15#6#37                                      1 	(obj:0)
Taught#15#7#33                                      1 	(obj:0)
Taught#15#8#7                                       1 	(obj:0)
Taught#15#9#2                                       1 	(obj:0)
Taught#15#10#13                                     1 	(obj:0)
Taught#15#11#43                                     1 	(obj:0)
Taught#16#1#15                                      1 	(obj:0)
Taught#16#2#22                                      1 	(obj:0)
Taught#16#3#36                                      1 	(obj:0)
Taught#16#4#3                                       1 	(obj:0)
Taught#16#5#16                                      1 	(obj:0)
Taught#16#6#42                                      1 	(obj:0)
Taught#16#7#41                                      1 	(obj:0)
Taught#16#8#5                                       1 	(obj:0)
Taught#16#9#30                                      1 	(obj:0)
Taught#16#10#8                                      1 	(obj:0)
Taught#16#12#24                                     1 	(obj:0)
Taught#17#1#15                                      1 	(obj:0)
Taught#17#2#37                                      1 	(obj:0)
Taught#17#4#16                                      1 	(obj:0)
Taught#17#5#1                                       1 	(obj:0)
Taught#17#6#28                                      1 	(obj:0)
Taught#17#7#26                                      1 	(obj:0)
Taught#17#8#30                                      1 	(obj:0)
Taught#17#9#4                                       1 	(obj:0)
Taught#17#11#42                                     1 	(obj:0)
Taught#17#12#32                                     1 	(obj:0)
Taught#18#1#36                                      1 	(obj:0)
Taught#18#2#33                                      1 	(obj:0)
Taught#18#3#22                                      1 	(obj:0)
Taught#18#4#15                                      1 	(obj:0)
Taught#18#5#6                                       1 	(obj:0)
Taught#18#6#12                                      1 	(obj:0)
Taught#18#7#1                                       1 	(obj:0)
Taught#18#8#30                                      1 	(obj:0)
Taught#18#9#26                                      1 	(obj:0)
Taught#18#10#49                                     1 	(obj:0)
Taught#18#11#37                                     1 	(obj:0)
Taught#18#12#40                                     1 	(obj:0)
Taught#19#1#18                                      1 	(obj:0)
Taught#19#2#22                                      1 	(obj:0)
Taught#19#3#45                                      1 	(obj:0)
Taught#19#4#29                                      1 	(obj:0)
Taught#19#5#16                                      1 	(obj:0)
Taught#19#7#6                                       1 	(obj:0)
Taught#19#8#40                                      1 	(obj:0)
Taught#19#9#20                                      1 	(obj:0)
Taught#19#10#13                                     1 	(obj:0)
Taught#19#11#4                                      1 	(obj:0)
Taught#19#12#35                                     1 	(obj:0)
Taught#20#1#36                                      1 	(obj:0)
Taught#20#2#12                                      1 	(obj:0)
Taught#20#3#28                                      1 	(obj:0)
Taught#20#4#26                                      1 	(obj:0)
Taught#20#5#10                                      1 	(obj:0)
Taught#20#6#52                                      1 	(obj:0)
Taught#20#7#15                                      1 	(obj:0)
Taught#20#8#6                                       1 	(obj:0)
Taught#20#9#30                                      1 	(obj:0)
Taught#20#10#51                                     1 	(obj:0)
Taught#20#11#1                                      1 	(obj:0)
Taught#20#12#18                                     1 	(obj:0)

Statistics
==========

SCIP Status        : problem is solved [optimal solution found]
Solving Time       :      10.50
Original Problem   :
  Problem name     : udine2.ctt.c.zpl
  Variables        : 12480 (12480 binary, 0 integer, 0 implicit integer, 0 continuous)
  Constraints      : 3080 initial, 3080 maximal
Presolved Problem  :
  Problem name     : t_udine2.ctt.c.zpl
  Variables        : 10752 (10752 binary, 0 integer, 0 implicit integer, 0 continuous)
  Constraints      : 925 initial, 925 maximal
Presolvers         :       Time  FixedVars   AggrVars   ChgTypes  ChgBounds   AddHoles    DelCons   ChgSides   ChgCoefs
  trivial          :       0.01          0          0          0          0          0          0          0          0
  inttobinary      :       0.00          0          0          0          0          0          0          0          0
  dualfix          :       0.01          0          0          0          0          0          0          0          0
  implics          :       0.00          0          0          0          0          0          0          0          0
  probing          :       1.30          0          0          0          0          0          0          0          0
  setppc           :       0.02          0          0          0          0          0          0          0          0
  linear           :       0.34       1728          0          0       1728          0       2155       1871          0
  root node        :          -          0          -          -          0          -          -          -          -
Constraints        :     Number  #Separate #Propagate    #EnfoLP    #EnfoPS    Cutoffs    DomReds       Cuts      Conss   Children
  integral         :          0          0          0          1          0          0          0          0          0          2
  setppc           :        840          6        201          0          0          0          0          0          0          0
  linear           :         85          6        201          0          0          0          0          0          0          0
Constraint Timings :  TotalTime   Separate  Propagate     EnfoLP     EnfoPS
  integral         :       5.46       0.00       0.00       5.46       0.00
  setppc           :       0.01       0.00       0.01       0.00       0.00
  linear           :       1.03       0.00       1.03       0.00       0.00
Propagators        :       Time      Calls    Cutoffs    DomReds
  rootredcost      :       0.00          0          0          0
  pseudoobj        :       0.00          1          0          0
Conflict Analysis  :       Time      Calls    Success  Conflicts   Literals    Reconvs ReconvLits   LP Iters
  propagation      :       0.00          0          0          0        0.0          0        0.0          -
  infeasible LP    :       0.00          0          0          0        0.0          0        0.0          0
  bound exceed. LP :       0.00          0          0          0        0.0          0        0.0          0
  strong branching :       0.00          0          0          0        0.0          0        0.0          0
  pseudo solution  :       0.00          0          0          0        0.0          0        0.0          -
  applied globally :          -          -          -          0        0.0          -          -          -
  applied locally  :          -          -          -          0        0.0          -          -          -
Separators         :       Time      Calls    Cutoffs    DomReds       Cuts      Conss
  cut pool         :       0.00          5          -          -          0          -    (maximal pool size: 14)
  redcost          :       0.00          6          0          0          0          0
  impliedbounds    :       0.04          6          0          0          0          0
  intobj           :       0.00          0          0          0          0          0
  gomory           :       0.01          6          0          0          0          0
  strongcg         :       0.05          6          0          0          0          0
  cmir             :       0.92          6          0          0          0          0
  clique           :       0.04          6          0          0         14          0
Pricers            :       Time      Calls       Vars
  problem variables:       0.00          0          0
Branching Rules    :       Time      Calls    Cutoffs    DomReds       Cuts      Conss   Children
  relpscost        :       5.46          1          0          0          0          0          2
  pscost           :       0.00          0          0          0          0          0          0
  inference        :       0.00          0          0          0          0          0          0
  mostinf          :       0.00          0          0          0          0          0          0
  leastinf         :       0.00          0          0          0          0          0          0
  fullstrong       :       0.00          0          0          0          0          0          0
  allfullstrong    :       0.00          0          0          0          0          0          0
Primal Heuristics  :       Time      Calls      Found
  LP solutions     :       0.00          -          0
  pseudo solutions :       0.00          -          0
  octane           :       0.00          0          0
  simplerounding   :       0.00          6          0
  rounding         :       0.04          6          0
  shifting         :       0.18          6          0
  fixandinfer      :       0.00          0          0
  feaspump         :       1.01          1          1
  coefdiving       :       0.00          0          0
  pscostdiving     :       0.00          0          0
  fracdiving       :       0.00          0          0
  intdiving        :       0.00          0          0
  objpscostdiving  :       0.00          0          0
  rootsoldiving    :       0.00          0          0
  linesearchdiving :       0.00          0          0
  guideddiving     :       0.00          0          0
  rins             :       0.00          0          0
  localbranching   :       0.00          0          0
  crossover        :       0.00          0          0
LP                 :       Time      Calls Iterations  Iter/call   Iter/sec
  primal LP        :       0.00          0          0       0.00          -
  dual LP          :       0.74          6       1501     250.17    2028.38
  barrier LP       :       0.00          0          0       0.00          -
  diving/probing LP:       1.00          1        751     751.00     751.00
  strong branching :       5.45         33       5372     162.79     985.69
    (at root node) :          -         33       5372     162.79          -
  conflict analysis:       0.00          0          0       0.00          -
B&B Tree           :
  number of runs   :          1
  nodes            :          1
  nodes (total)    :          1
  nodes left       :          0
  max depth        :          0
  max depth (total):          0
  backtracks       :          0 (0.0%)
  delayed cutoffs  :          0
  repropagations   :          0 (0 domain reductions, 0 cutoffs)
  avg switch length:       2.00
  switching time   :       0.00
Solution           :
  Solutions found  :          1 (1 improvements)
  Primal Bound     : +0.00000000000000e+00   (in run 1, after 1 nodes, 10.48 seconds, depth 0, found by <feaspump>)
  Dual Bound       : +0.00000000000000e+00
  Gap              :       0.00 %
  Root Dual Bound  : +0.00000000000000e+00
